g3 0 1 0	# problem d6n6R1R6d05d1
 6 6 1 0 1	# vars, constraints, objectives, ranges, eqns
 4 1	# nonlinear constraints, objectives
 0 0	# network constraints: nonlinear, linear
 6 6 6	# nonlinear vars in constraints, objectives, both
 0 0 0 1	# linear network variables; functions; arith, flags
 0 0 0 0 0	# discrete variables: binary, integer, nonlinear (b,c,o)
 36 6	# nonzeros in Jacobian, gradients
 0 0	# max name lengths: constraints, variables
 0 0 0 0 0	# common exprs: b,c,o,c1,o1
b
0 0.46 2.15
0 0.92 2.52
0 0.17 2.87
0 0.33 2.03
0 0.99 2.43
0 0.33 2.88
r
2 164.028
2 439.037
2 1962.21
2 6021.19
4 24.263
2 38.831
C0
o54
10
o2
o2
n2.86
v0
v0
o2
o2
n4.87
v0
v2
o2
o2
n5.3
v0
v3
o2
o2
n5.37
v1
v2
o2
o2
n3.07
v1
v4
o2
o2
n4.91
v2
v2
o2
o2
n3.45
v2
v5
o2
o2
n9.71
v4
v4
o2
o2
n8.02
v4
v5
o2
o2
n5.36
v5
v5
C1
o54
34
o16
o2
o2
n1.39
v0
v0
o2
o2
n0.9
v0
v2
o2
o2
n0.85
v0
v3
o2
o2
n9.92
v1
v2
o2
o2
n3.31
v1
v4
o2
o2
n3.92
v2
v2
o16
o2
o2
n4.47
v2
v5
o16
o2
o2
n1.24
v4
v4
o2
o2
n1.11
v4
v5
o2
o2
n0.47
v5
v5
o2
o2
o2
n9.65
v0
v0
v0
o2
o2
o2
n0.31
v0
v0
v1
o16
o2
o2
o2
n6.94
v0
v1
v2
o2
o2
o2
n9.24
v0
v1
v4
o2
o2
o2
n9.86
v0
v2
v4
o2
o2
o2
n4.13
v0
v4
v4
o2
o2
o2
n5.2
v0
v5
v5
o2
o2
o2
n1.78
v1
v2
v2
o2
o2
o2
n6.42
v1
v2
v5
o2
o2
o2
n2.61
v1
v3
v3
o2
o2
o2
n8.97
v1
v3
v5
o2
o2
o2
n0.42
v1
v4
v5
o2
o2
o2
n0.51
v1
v5
v5
o2
o2
o2
n7.24
v2
v2
v2
o2
o2
o2
n7.77
v2
v2
v4
o16
o2
o2
o2
n7.59
v2
v3
v4
o2
o2
o2
n6.55
v3
v3
v4
o2
o2
o2
n0.88
v3
v3
v5
o2
o2
o2
n6.43
v3
v4
v4
o2
o2
o2
n6.3
v3
v4
v5
o2
o2
o2
n6.73
v3
v5
v5
o2
o2
o2
n9.01
v4
v4
v5
o2
o2
o2
n5.32
v4
v5
v5
o2
o2
o2
n1.92
v5
v5
v5
C2
o54
94
o2
o2
n2.95
v0
v0
o16
o2
o2
n6.3
v0
v2
o2
o2
n1.78
v0
v3
o2
o2
n1.9
v1
v2
o2
o2
n9.4
v1
v4
o2
o2
n0.84
v2
v2
o2
o2
n6.1
v2
v5
o2
o2
n3.26
v4
v4
o2
o2
n0.63
v4
v5
o2
o2
n6.06
v5
v5
o2
o2
o2
n9.76
v0
v0
v0
o2
o2
o2
n1.89
v0
v0
v1
o16
o2
o2
o2
n1.4
v0
v1
v2
o2
o2
o2
n9.17
v0
v1
v4
o2
o2
o2
n7.64
v0
v2
v4
o2
o2
o2
n2.39
v0
v4
v4
o2
o2
o2
n9.43
v0
v5
v5
o2
o2
o2
n6.52
v1
v2
v2
o2
o2
o2
n9.38
v1
v2
v5
o2
o2
o2
n4.84
v1
v3
v3
o2
o2
o2
n4.32
v1
v3
v5
o2
o2
o2
n4.08
v1
v4
v5
o2
o2
o2
n4
v1
v5
v5
o2
o2
o2
n5.96
v2
v2
v2
o2
o2
o2
n7.79
v2
v2
v4
o2
o2
o2
n9.27
v2
v3
v4
o2
o2
o2
n5.65
v3
v3
v4
o2
o2
o2
n1.46
v3
v3
v5
o2
o2
o2
n5.1
v3
v4
v4
o2
o2
o2
n3.89
v3
v4
v5
o2
o2
o2
n0.74
v3
v5
v5
o2
o2
o2
n9.69
v4
v4
v5
o2
o2
o2
n7.77
v4
v5
v5
o2
o2
o2
n8.43
v5
v5
v5
o2
o2
o2
o2
n6.24
v0
v0
v0
v0
o2
o2
o2
o2
n6.53
v0
v0
v0
v3
o2
o2
o2
o2
n7.47
v0
v0
v0
v5
o2
o2
o2
o2
n7.56
v0
v0
v1
v1
o2
o2
o2
o2
n9.24
v0
v0
v1
v3
o2
o2
o2
o2
n1.5
v0
v0
v1
v4
o2
o2
o2
o2
n1.28
v0
v0
v2
v5
o16
o2
o2
o2
o2
n6.89
v0
v0
v4
v4
o2
o2
o2
o2
n7.77
v0
v0
v4
v5
o2
o2
o2
o2
n5.16
v0
v1
v1
v1
o2
o2
o2
o2
n8.11
v0
v1
v1
v2
o2
o2
o2
o2
n0.97
v0
v1
v1
v3
o2
o2
o2
o2
n2.9
v0
v1
v1
v4
o2
o2
o2
o2
n7.76
v0
v1
v1
v5
o16
o2
o2
o2
o2
n6.37
v0
v1
v2
v4
o2
o2
o2
o2
n2.56
v0
v1
v2
v5
o2
o2
o2
o2
n2.02
v0
v1
v3
v5
o2
o2
o2
o2
n9.07
v0
v1
v4
v4
o2
o2
o2
o2
n2.95
v0
v1
v4
v5
o2
o2
o2
o2
n3.13
v0
v2
v2
v2
o2
o2
o2
o2
n3.45
v0
v2
v3
v3
o2
o2
o2
o2
n9.57
v0
v2
v3
v4
o2
o2
o2
o2
n3.42
v0
v3
v3
v4
o2
o2
o2
o2
n4.61
v0
v3
v3
v5
o2
o2
o2
o2
n2.21
v0
v3
v4
v4
o2
o2
o2
o2
n2.78
v0
v4
v4
v4
o2
o2
o2
o2
n3.42
v0
v4
v5
v5
o16
o2
o2
o2
o2
n2.43
v0
v5
v5
v5
o2
o2
o2
o2
n7.15
v1
v1
v1
v1
o2
o2
o2
o2
n8.96
v1
v1
v1
v3
o2
o2
o2
o2
n1.43
v1
v1
v2
v4
o2
o2
o2
o2
n9.74
v1
v1
v2
v5
o2
o2
o2
o2
n9.23
v1
v1
v3
v3
o2
o2
o2
o2
n9.91
v1
v1
v3
v5
o2
o2
o2
o2
n2.67
v1
v1
v4
v5
o2
o2
o2
o2
n2.94
v1
v1
v5
v5
o2
o2
o2
o2
n1.08
v1
v2
v2
v2
o16
o2
o2
o2
o2
n5.19
v1
v2
v2
v4
o2
o2
o2
o2
n4.29
v1
v2
v2
v5
o16
o2
o2
o2
o2
n8.42
v1
v2
v3
v4
o2
o2
o2
o2
n7.88
v1
v2
v4
v4
o2
o2
o2
o2
n9.41
v1
v2
v4
v5
o2
o2
o2
o2
n1.85
v1
v3
v4
v4
o2
o2
o2
o2
n0.59
v1
v4
v4
v5
o2
o2
o2
o2
n9.36
v1
v5
v5
v5
o2
o2
o2
o2
n0.95
v2
v2
v5
v5
o2
o2
o2
o2
n6.98
v2
v3
v3
v3
o2
o2
o2
o2
n1.13
v2
v3
v3
v4
o2
o2
o2
o2
n3.16
v2
v3
v3
v5
o2
o2
o2
o2
n1.8
v2
v3
v4
v5
o2
o2
o2
o2
n6.34
v2
v3
v5
v5
o2
o2
o2
o2
n9.48
v2
v4
v5
v5
o2
o2
o2
o2
n9.4
v3
v3
v3
v3
o2
o2
o2
o2
n8.68
v3
v3
v3
v5
o2
o2
o2
o2
n1.84
v3
v4
v4
v4
o2
o2
o2
o2
n4.62
v3
v4
v4
v5
o2
o2
o2
o2
n6.48
v3
v4
v5
v5
o2
o2
o2
o2
n5.44
v4
v4
v4
v4
o2
o2
o2
o2
n2.02
v4
v4
v5
v5
o2
o2
o2
o2
n8.07
v4
v5
v5
v5
C3
o54
216
o2
o2
n1.5
v0
v0
o2
o2
n5.52
v0
v2
o2
o2
n8.46
v0
v3
o2
o2
n5.68
v1
v2
o2
o2
n1.78
v1
v4
o2
o2
n9.81
v2
v2
o2
o2
n2.54
v2
v5
o2
o2
n6.6
v4
v4
o2
o2
n0.38
v4
v5
o2
o2
n7.82
v5
v5
o2
o2
o2
n5.08
v0
v0
v0
o2
o2
o2
n4.56
v0
v0
v1
o16
o2
o2
o2
n4.63
v0
v1
v2
o2
o2
o2
n2.63
v0
v1
v4
o2
o2
o2
n6.48
v0
v2
v4
o2
o2
o2
n6.25
v0
v4
v4
o16
o2
o2
o2
n3.49
v0
v5
v5
o2
o2
o2
n4.16
v1
v2
v2
o2
o2
o2
n1.16
v1
v2
v5
o2
o2
o2
n7.13
v1
v3
v3
o2
o2
o2
n7.68
v1
v3
v5
o2
o2
o2
n0.94
v1
v4
v5
o2
o2
o2
n3.39
v1
v5
v5
o2
o2
o2
n3.91
v2
v2
v2
o2
o2
o2
n1.16
v2
v2
v4
o2
o2
o2
n3.09
v2
v3
v4
o16
o2
o2
o2
n4.37
v3
v3
v4
o2
o2
o2
n8.08
v3
v3
v5
o16
o2
o2
o2
n3.84
v3
v4
v4
o2
o2
o2
n6.6
v3
v4
v5
o2
o2
o2
n0.55
v3
v5
v5
o16
o2
o2
o2
n0.86
v4
v4
v5
o2
o2
o2
n5.46
v4
v5
v5
o2
o2
o2
n8.82
v5
v5
v5
o2
o2
o2
o2
n3.18
v0
v0
v0
v0
o2
o2
o2
o2
n9.31
v0
v0
v0
v3
o2
o2
o2
o2
n0.88
v0
v0
v0
v5
o2
o2
o2
o2
n5.23
v0
v0
v1
v1
o2
o2
o2
o2
n9.18
v0
v0
v1
v3
o2
o2
o2
o2
n3.71
v0
v0
v1
v4
o16
o2
o2
o2
o2
n6.44
v0
v0
v2
v5
o2
o2
o2
o2
n7.45
v0
v0
v4
v4
o2
o2
o2
o2
n3.13
v0
v0
v4
v5
o2
o2
o2
o2
n6.19
v0
v1
v1
v1
o2
o2
o2
o2
n7.71
v0
v1
v1
v2
o2
o2
o2
o2
n2.47
v0
v1
v1
v3
o2
o2
o2
o2
n0.68
v0
v1
v1
v4
o2
o2
o2
o2
n0.63
v0
v1
v1
v5
o2
o2
o2
o2
n8.4
v0
v1
v2
v4
o2
o2
o2
o2
n3.22
v0
v1
v2
v5
o2
o2
o2
o2
n3.05
v0
v1
v3
v5
o2
o2
o2
o2
n3.79
v0
v1
v4
v4
o2
o2
o2
o2
n0.57
v0
v1
v4
v5
o2
o2
o2
o2
n0.24
v0
v2
v2
v2
o2
o2
o2
o2
n2.88
v0
v2
v3
v3
o2
o2
o2
o2
n7.65
v0
v2
v3
v4
o16
o2
o2
o2
o2
n6.1
v0
v3
v3
v4
o2
o2
o2
o2
n4.77
v0
v3
v3
v5
o2
o2
o2
o2
n1.3
v0
v3
v4
v4
o2
o2
o2
o2
n3.13
v0
v4
v4
v4
o2
o2
o2
o2
n9.33
v0
v4
v5
v5
o16
o2
o2
o2
o2
n2.96
v0
v5
v5
v5
o16
o2
o2
o2
o2
n6.26
v1
v1
v1
v1
o2
o2
o2
o2
n4.87
v1
v1
v1
v3
o2
o2
o2
o2
n1.06
v1
v1
v2
v4
o2
o2
o2
o2
n1.39
v1
v1
v2
v5
o2
o2
o2
o2
n2.07
v1
v1
v3
v3
o2
o2
o2
o2
n7.45
v1
v1
v3
v5
o2
o2
o2
o2
n3.72
v1
v1
v4
v5
o2
o2
o2
o2
n3.83
v1
v1
v5
v5
o2
o2
o2
o2
n0.25
v1
v2
v2
v2
o2
o2
o2
o2
n2.71
v1
v2
v2
v4
o16
o2
o2
o2
o2
n7.81
v1
v2
v2
v5
o2
o2
o2
o2
n9.25
v1
v2
v3
v4
o2
o2
o2
o2
n1.59
v1
v2
v4
v4
o2
o2
o2
o2
n8.43
v1
v2
v4
v5
o2
o2
o2
o2
n9.59
v1
v3
v4
v4
o2
o2
o2
o2
n1.07
v1
v4
v4
v5
o2
o2
o2
o2
n9.45
v1
v5
v5
v5
o2
o2
o2
o2
n8.19
v2
v2
v5
v5
o2
o2
o2
o2
n0.06
v2
v3
v3
v3
o2
o2
o2
o2
n7.68
v2
v3
v3
v4
o2
o2
o2
o2
n4.38
v2
v3
v3
v5
o2
o2
o2
o2
n2.49
v2
v3
v4
v5
o2
o2
o2
o2
n5.14
v2
v3
v5
v5
o16
o2
o2
o2
o2
n4.18
v2
v4
v5
v5
o2
o2
o2
o2
n9.89
v3
v3
v3
v3
o2
o2
o2
o2
n1.15
v3
v3
v3
v5
o2
o2
o2
o2
n7.07
v3
v4
v4
v4
o2
o2
o2
o2
n5.4
v3
v4
v4
v5
o2
o2
o2
o2
n9.54
v3
v4
v5
v5
o2
o2
o2
o2
n6.96
v4
v4
v4
v4
o2
o2
o2
o2
n7.19
v4
v4
v5
v5
o2
o2
o2
o2
n0.15
v4
v5
v5
v5
o2
o2
o2
o2
o2
n5.26
v0
v0
v0
v0
v1
o16
o2
o2
o2
o2
o2
n0.53
v0
v0
v0
v0
v4
o2
o2
o2
o2
o2
n9.81
v0
v0
v0
v0
v5
o2
o2
o2
o2
o2
n6.76
v0
v0
v0
v1
v1
o2
o2
o2
o2
o2
n6.94
v0
v0
v0
v1
v4
o2
o2
o2
o2
o2
n6.42
v0
v0
v0
v2
v2
o2
o2
o2
o2
o2
n7.43
v0
v0
v0
v2
v4
o16
o2
o2
o2
o2
o2
n9.77
v0
v0
v0
v3
v3
o2
o2
o2
o2
o2
n3.19
v0
v0
v0
v4
v4
o2
o2
o2
o2
o2
n0.57
v0
v0
v0
v4
v5
o2
o2
o2
o2
o2
n7.22
v0
v0
v1
v1
v2
o16
o2
o2
o2
o2
o2
n8.02
v0
v0
v1
v1
v3
o2
o2
o2
o2
o2
n3.51
v0
v0
v1
v1
v5
o2
o2
o2
o2
o2
n8.88
v0
v0
v1
v2
v4
o2
o2
o2
o2
o2
n8.65
v0
v0
v1
v3
v4
o2
o2
o2
o2
o2
n3.84
v0
v0
v1
v3
v5
o2
o2
o2
o2
o2
n1.49
v0
v0
v1
v4
v4
o2
o2
o2
o2
o2
n7.13
v0
v0
v1
v5
v5
o2
o2
o2
o2
o2
n2.5
v0
v0
v2
v2
v2
o2
o2
o2
o2
o2
n3.59
v0
v0
v2
v2
v3
o16
o2
o2
o2
o2
o2
n9.48
v0
v0
v2
v2
v5
o2
o2
o2
o2
o2
n2.08
v0
v0
v2
v5
v5
o2
o2
o2
o2
o2
n1.02
v0
v0
v3
v3
v5
o2
o2
o2
o2
o2
n9.42
v0
v0
v3
v5
v5
o2
o2
o2
o2
o2
n4.37
v0
v0
v4
v4
v4
o2
o2
o2
o2
o2
n3.87
v0
v0
v5
v5
v5
o2
o2
o2
o2
o2
n9.35
v0
v1
v1
v1
v2
o2
o2
o2
o2
o2
n2.25
v0
v1
v1
v1
v3
o2
o2
o2
o2
o2
n4.65
v0
v1
v1
v1
v4
o2
o2
o2
o2
o2
n9.68
v0
v1
v1
v1
v5
o2
o2
o2
o2
o2
n8.3
v0
v1
v1
v2
v2
o2
o2
o2
o2
o2
n6.09
v0
v1
v1
v2
v3
o2
o2
o2
o2
o2
n8.75
v0
v1
v1
v2
v5
o2
o2
o2
o2
o2
n8.56
v0
v1
v1
v3
v4
o2
o2
o2
o2
o2
n8.19
v0
v1
v1
v4
v4
o2
o2
o2
o2
o2
n3.46
v0
v1
v2
v2
v3
o2
o2
o2
o2
o2
n4.6
v0
v1
v2
v3
v3
o16
o2
o2
o2
o2
o2
n7.59
v0
v1
v2
v3
v5
o2
o2
o2
o2
o2
n4.13
v0
v1
v3
v3
v3
o2
o2
o2
o2
o2
n2.22
v0
v1
v3
v3
v4
o16
o2
o2
o2
o2
o2
n0.45
v0
v1
v3
v3
v5
o2
o2
o2
o2
o2
n9.27
v0
v1
v3
v4
v4
o2
o2
o2
o2
o2
n2.43
v0
v1
v3
v4
v5
o2
o2
o2
o2
o2
n3.54
v0
v1
v3
v5
v5
o2
o2
o2
o2
o2
n6.95
v0
v1
v4
v4
v5
o2
o2
o2
o2
o2
n0.14
v0
v2
v2
v2
v4
o2
o2
o2
o2
o2
n8.27
v0
v2
v2
v2
v5
o16
o2
o2
o2
o2
o2
n1.18
v0
v2
v2
v3
v3
o2
o2
o2
o2
o2
n0.48
v0
v2
v2
v3
v4
o2
o2
o2
o2
o2
n0.68
v0
v2
v2
v5
v5
o2
o2
o2
o2
o2
n4.71
v0
v2
v3
v3
v4
o16
o2
o2
o2
o2
o2
n1.97
v0
v2
v3
v5
v5
o16
o2
o2
o2
o2
o2
n7.66
v0
v2
v5
v5
v5
o2
o2
o2
o2
o2
n6.41
v0
v3
v3
v5
v5
o2
o2
o2
o2
o2
n2.83
v0
v3
v4
v5
v5
o2
o2
o2
o2
o2
n7.61
v0
v4
v4
v5
v5
o2
o2
o2
o2
o2
n1.26
v1
v1
v1
v1
v1
o2
o2
o2
o2
o2
n0.29
v1
v1
v1
v1
v2
o2
o2
o2
o2
o2
n3.19
v1
v1
v1
v1
v3
o2
o2
o2
o2
o2
n7.63
v1
v1
v1
v1
v5
o2
o2
o2
o2
o2
n7.2
v1
v1
v1
v2
v2
o2
o2
o2
o2
o2
n6.38
v1
v1
v1
v2
v5
o2
o2
o2
o2
o2
n8.53
v1
v1
v1
v3
v4
o2
o2
o2
o2
o2
n3.68
v1
v1
v1
v3
v5
o2
o2
o2
o2
o2
n2.91
v1
v1
v1
v4
v4
o2
o2
o2
o2
o2
n4.68
v1
v1
v1
v5
v5
o2
o2
o2
o2
o2
n7.73
v1
v1
v2
v2
v2
o2
o2
o2
o2
o2
n5.03
v1
v1
v2
v3
v4
o2
o2
o2
o2
o2
n6.87
v1
v1
v2
v5
v5
o2
o2
o2
o2
o2
n7.29
v1
v1
v3
v3
v3
o16
o2
o2
o2
o2
o2
n0.96
v1
v1
v3
v3
v4
o2
o2
o2
o2
o2
n5.33
v1
v1
v3
v4
v5
o2
o2
o2
o2
o2
n9.46
v1
v1
v4
v4
v4
o2
o2
o2
o2
o2
n5.78
v1
v1
v4
v5
v5
o2
o2
o2
o2
o2
n6.19
v1
v1
v5
v5
v5
o2
o2
o2
o2
o2
n0.59
v1
v2
v2
v2
v2
o2
o2
o2
o2
o2
n5
v1
v2
v2
v2
v4
o2
o2
o2
o2
o2
n9.81
v1
v2
v2
v2
v5
o2
o2
o2
o2
o2
n6.83
v1
v2
v2
v3
v3
o2
o2
o2
o2
o2
n8.5
v1
v2
v2
v3
v5
o2
o2
o2
o2
o2
n5.11
v1
v2
v2
v4
v5
o2
o2
o2
o2
o2
n7.06
v1
v2
v3
v3
v3
o2
o2
o2
o2
o2
n0.7
v1
v2
v3
v3
v4
o2
o2
o2
o2
o2
n8.87
v1
v2
v3
v4
v5
o2
o2
o2
o2
o2
n3.23
v1
v2
v3
v5
v5
o2
o2
o2
o2
o2
n4.32
v1
v2
v4
v4
v5
o2
o2
o2
o2
o2
n0.21
v1
v3
v3
v3
v3
o16
o2
o2
o2
o2
o2
n5.42
v1
v3
v3
v3
v4
o2
o2
o2
o2
o2
n0.5
v1
v3
v3
v4
v5
o2
o2
o2
o2
o2
n9.88
v1
v3
v3
v5
v5
o2
o2
o2
o2
o2
n3.83
v1
v3
v4
v4
v5
o2
o2
o2
o2
o2
n8.81
v1
v4
v4
v4
v4
o2
o2
o2
o2
o2
n2.76
v1
v4
v4
v4
v5
o2
o2
o2
o2
o2
n7.16
v2
v2
v2
v2
v2
o2
o2
o2
o2
o2
n8.76
v2
v2
v2
v2
v3
o2
o2
o2
o2
o2
n0.84
v2
v2
v2
v2
v5
o2
o2
o2
o2
o2
n8.94
v2
v2
v2
v3
v5
o2
o2
o2
o2
o2
n9.63
v2
v2
v2
v4
v4
o2
o2
o2
o2
o2
n4.91
v2
v2
v2
v5
v5
o2
o2
o2
o2
o2
n0.01
v2
v2
v3
v3
v3
o2
o2
o2
o2
o2
n0.57
v2
v2
v3
v3
v4
o16
o2
o2
o2
o2
o2
n6.88
v2
v2
v3
v3
v5
o2
o2
o2
o2
o2
n0.05
v2
v2
v3
v4
v4
o2
o2
o2
o2
o2
n8.26
v2
v2
v4
v4
v4
o2
o2
o2
o2
o2
n2.66
v2
v2
v4
v4
v5
o2
o2
o2
o2
o2
n2.06
v2
v2
v4
v5
v5
o2
o2
o2
o2
o2
n6.27
v2
v2
v5
v5
v5
o2
o2
o2
o2
o2
n8.97
v2
v3
v3
v3
v3
o2
o2
o2
o2
o2
n5.71
v2
v3
v3
v3
v4
o2
o2
o2
o2
o2
n0.48
v2
v3
v3
v5
v5
o16
o2
o2
o2
o2
o2
n7.71
v2
v3
v4
v5
v5
o2
o2
o2
o2
o2
n6.22
v2
v3
v5
v5
v5
o2
o2
o2
o2
o2
n9.08
v2
v5
v5
v5
v5
o2
o2
o2
o2
o2
n9.5
v3
v3
v3
v5
v5
o2
o2
o2
o2
o2
n9.46
v3
v3
v4
v5
v5
o2
o2
o2
o2
o2
n5.31
v3
v3
v5
v5
v5
o16
o2
o2
o2
o2
o2
n5.52
v3
v4
v4
v4
v4
o2
o2
o2
o2
o2
n9.67
v3
v4
v4
v4
v5
o2
o2
o2
o2
o2
n7.78
v3
v4
v5
v5
v5
o2
o2
o2
o2
o2
n4.52
v4
v4
v4
v4
v4
o2
o2
o2
o2
o2
n7.02
v4
v5
v5
v5
v5
o2
o2
o2
o2
o2
n7.11
v5
v5
v5
v5
v5
C4
n0
C5
n0
O0 0
o54
458
o2
o2
n8.05
v0
v0
o2
o2
n5.88
v0
v2
o2
o2
n0.09
v0
v3
o2
o2
n2.67
v1
v2
o2
o2
n1.32
v1
v4
o2
o2
n4.87
v2
v2
o2
o2
n1.79
v2
v5
o2
o2
n1.84
v4
v4
o2
o2
n6.45
v4
v5
o2
o2
n3.63
v5
v5
o2
o2
o2
n3.95
v0
v0
v0
o2
o2
o2
n2.22
v0
v0
v1
o2
o2
o2
n0.44
v0
v1
v2
o2
o2
o2
n8.64
v0
v1
v4
o16
o2
o2
o2
n6.34
v0
v2
v4
o2
o2
o2
n6.33
v0
v4
v4
o2
o2
o2
n8.84
v0
v5
v5
o2
o2
o2
n5.97
v1
v2
v2
o2
o2
o2
n7.91
v1
v2
v5
o2
o2
o2
n2.12
v1
v3
v3
o2
o2
o2
n8.65
v1
v3
v5
o2
o2
o2
n7.02
v1
v4
v5
o2
o2
o2
n7.82
v1
v5
v5
o2
o2
o2
n1.78
v2
v2
v2
o2
o2
o2
n7.36
v2
v2
v4
o2
o2
o2
n0.39
v2
v3
v4
o2
o2
o2
n2.65
v3
v3
v4
o2
o2
o2
n6.75
v3
v3
v5
o16
o2
o2
o2
n8.38
v3
v4
v4
o2
o2
o2
n0.07
v3
v4
v5
o2
o2
o2
n9.86
v3
v5
v5
o2
o2
o2
n9.02
v4
v4
v5
o2
o2
o2
n2.55
v4
v5
v5
o2
o2
o2
n9.83
v5
v5
v5
o2
o2
o2
o2
n7.56
v0
v0
v0
v0
o2
o2
o2
o2
n8.69
v0
v0
v0
v3
o2
o2
o2
o2
n6.07
v0
v0
v0
v5
o2
o2
o2
o2
n3.89
v0
v0
v1
v1
o16
o2
o2
o2
o2
n0.42
v0
v0
v1
v3
o2
o2
o2
o2
n7.73
v0
v0
v1
v4
o2
o2
o2
o2
n4.57
v0
v0
v2
v5
o16
o2
o2
o2
o2
n3.85
v0
v0
v4
v4
o2
o2
o2
o2
n1.96
v0
v0
v4
v5
o2
o2
o2
o2
n0.02
v0
v1
v1
v1
o2
o2
o2
o2
n3.43
v0
v1
v1
v2
o2
o2
o2
o2
n1.84
v0
v1
v1
v3
o2
o2
o2
o2
n3
v0
v1
v1
v4
o2
o2
o2
o2
n7.66
v0
v1
v1
v5
o2
o2
o2
o2
n4.45
v0
v1
v2
v4
o2
o2
o2
o2
n9.95
v0
v1
v2
v5
o2
o2
o2
o2
n6.38
v0
v1
v3
v5
o2
o2
o2
o2
n3.51
v0
v1
v4
v4
o2
o2
o2
o2
n8.65
v0
v1
v4
v5
o2
o2
o2
o2
n5.85
v0
v2
v2
v2
o2
o2
o2
o2
n7.95
v0
v2
v3
v3
o2
o2
o2
o2
n9.94
v0
v2
v3
v4
o2
o2
o2
o2
n5.37
v0
v3
v3
v4
o2
o2
o2
o2
n4.77
v0
v3
v3
v5
o2
o2
o2
o2
n3.77
v0
v3
v4
v4
o2
o2
o2
o2
n3.92
v0
v4
v4
v4
o2
o2
o2
o2
n7.67
v0
v4
v5
v5
o2
o2
o2
o2
n7.6
v0
v5
v5
v5
o2
o2
o2
o2
n3.65
v1
v1
v1
v1
o16
o2
o2
o2
o2
n8.28
v1
v1
v1
v3
o2
o2
o2
o2
n3.88
v1
v1
v2
v4
o2
o2
o2
o2
n5.37
v1
v1
v2
v5
o16
o2
o2
o2
o2
n0.79
v1
v1
v3
v3
o2
o2
o2
o2
n9.24
v1
v1
v3
v5
o2
o2
o2
o2
n5.47
v1
v1
v4
v5
o2
o2
o2
o2
n9.84
v1
v1
v5
v5
o2
o2
o2
o2
n7.82
v1
v2
v2
v2
o2
o2
o2
o2
n0.24
v1
v2
v2
v4
o2
o2
o2
o2
n1.15
v1
v2
v2
v5
o2
o2
o2
o2
n0.47
v1
v2
v3
v4
o16
o2
o2
o2
o2
n9.02
v1
v2
v4
v4
o16
o2
o2
o2
o2
n1.92
v1
v2
v4
v5
o16
o2
o2
o2
o2
n7.24
v1
v3
v4
v4
o2
o2
o2
o2
n7.57
v1
v4
v4
v5
o2
o2
o2
o2
n8.76
v1
v5
v5
v5
o2
o2
o2
o2
n8.47
v2
v2
v5
v5
o2
o2
o2
o2
n4.24
v2
v3
v3
v3
o2
o2
o2
o2
n1.7
v2
v3
v3
v4
o16
o2
o2
o2
o2
n6.25
v2
v3
v3
v5
o2
o2
o2
o2
n0.14
v2
v3
v4
v5
o2
o2
o2
o2
n9.71
v2
v3
v5
v5
o2
o2
o2
o2
n9.35
v2
v4
v5
v5
o2
o2
o2
o2
n6.54
v3
v3
v3
v3
o2
o2
o2
o2
n2
v3
v3
v3
v5
o2
o2
o2
o2
n7.33
v3
v4
v4
v4
o2
o2
o2
o2
n4.85
v3
v4
v4
v5
o2
o2
o2
o2
n7.71
v3
v4
v5
v5
o2
o2
o2
o2
n9.04
v4
v4
v4
v4
o2
o2
o2
o2
n2.33
v4
v4
v5
v5
o2
o2
o2
o2
n8.53
v4
v5
v5
v5
o2
o2
o2
o2
o2
n4.34
v0
v0
v0
v0
v1
o16
o2
o2
o2
o2
o2
n7.41
v0
v0
v0
v0
v4
o2
o2
o2
o2
o2
n2.99
v0
v0
v0
v0
v5
o2
o2
o2
o2
o2
n1.12
v0
v0
v0
v1
v1
o2
o2
o2
o2
o2
n7.3
v0
v0
v0
v1
v4
o2
o2
o2
o2
o2
n1.99
v0
v0
v0
v2
v2
o2
o2
o2
o2
o2
n8.59
v0
v0
v0
v2
v4
o2
o2
o2
o2
o2
n4.46
v0
v0
v0
v3
v3
o2
o2
o2
o2
o2
n9.65
v0
v0
v0
v4
v4
o2
o2
o2
o2
o2
n0.16
v0
v0
v0
v4
v5
o2
o2
o2
o2
o2
n3.42
v0
v0
v1
v1
v2
o2
o2
o2
o2
o2
n8.36
v0
v0
v1
v1
v3
o2
o2
o2
o2
o2
n8.9
v0
v0
v1
v1
v5
o2
o2
o2
o2
o2
n1.85
v0
v0
v1
v2
v4
o2
o2
o2
o2
o2
n7.2
v0
v0
v1
v3
v4
o2
o2
o2
o2
o2
n3.81
v0
v0
v1
v3
v5
o2
o2
o2
o2
o2
n5.49
v0
v0
v1
v4
v4
o2
o2
o2
o2
o2
n5.81
v0
v0
v1
v5
v5
o2
o2
o2
o2
o2
n1.67
v0
v0
v2
v2
v2
o16
o2
o2
o2
o2
o2
n2.35
v0
v0
v2
v2
v3
o2
o2
o2
o2
o2
n7.54
v0
v0
v2
v2
v5
o2
o2
o2
o2
o2
n2.18
v0
v0
v2
v5
v5
o2
o2
o2
o2
o2
n3.4
v0
v0
v3
v3
v5
o2
o2
o2
o2
o2
n1.77
v0
v0
v3
v5
v5
o16
o2
o2
o2
o2
o2
n1.75
v0
v0
v4
v4
v4
o2
o2
o2
o2
o2
n1.25
v0
v0
v5
v5
v5
o2
o2
o2
o2
o2
n2.95
v0
v1
v1
v1
v2
o2
o2
o2
o2
o2
n8.01
v0
v1
v1
v1
v3
o2
o2
o2
o2
o2
n0.72
v0
v1
v1
v1
v4
o2
o2
o2
o2
o2
n8.51
v0
v1
v1
v1
v5
o2
o2
o2
o2
o2
n0.18
v0
v1
v1
v2
v2
o2
o2
o2
o2
o2
n3.33
v0
v1
v1
v2
v3
o2
o2
o2
o2
o2
n6.35
v0
v1
v1
v2
v5
o2
o2
o2
o2
o2
n5.97
v0
v1
v1
v3
v4
o16
o2
o2
o2
o2
o2
n5.85
v0
v1
v1
v4
v4
o2
o2
o2
o2
o2
n0.69
v0
v1
v2
v2
v3
o2
o2
o2
o2
o2
n9.62
v0
v1
v2
v3
v3
o2
o2
o2
o2
o2
n9.62
v0
v1
v2
v3
v5
o2
o2
o2
o2
o2
n9.51
v0
v1
v3
v3
v3
o2
o2
o2
o2
o2
n4.48
v0
v1
v3
v3
v4
o2
o2
o2
o2
o2
n6.53
v0
v1
v3
v3
v5
o2
o2
o2
o2
o2
n3.31
v0
v1
v3
v4
v4
o2
o2
o2
o2
o2
n3.57
v0
v1
v3
v4
v5
o2
o2
o2
o2
o2
n7.38
v0
v1
v3
v5
v5
o2
o2
o2
o2
o2
n0.36
v0
v1
v4
v4
v5
o2
o2
o2
o2
o2
n8.73
v0
v2
v2
v2
v4
o2
o2
o2
o2
o2
n3.64
v0
v2
v2
v2
v5
o2
o2
o2
o2
o2
n3.54
v0
v2
v2
v3
v3
o16
o2
o2
o2
o2
o2
n0.11
v0
v2
v2
v3
v4
o2
o2
o2
o2
o2
n1.72
v0
v2
v2
v5
v5
o2
o2
o2
o2
o2
n5.19
v0
v2
v3
v3
v4
o2
o2
o2
o2
o2
n8
v0
v2
v3
v5
v5
o2
o2
o2
o2
o2
n5.26
v0
v2
v5
v5
v5
o2
o2
o2
o2
o2
n4.81
v0
v3
v3
v5
v5
o2
o2
o2
o2
o2
n6.32
v0
v3
v4
v5
v5
o2
o2
o2
o2
o2
n2.34
v0
v4
v4
v5
v5
o2
o2
o2
o2
o2
n6.72
v1
v1
v1
v1
v1
o2
o2
o2
o2
o2
n5.99
v1
v1
v1
v1
v2
o2
o2
o2
o2
o2
n6.94
v1
v1
v1
v1
v3
o2
o2
o2
o2
o2
n6.61
v1
v1
v1
v1
v5
o2
o2
o2
o2
o2
n4.08
v1
v1
v1
v2
v2
o2
o2
o2
o2
o2
n3.78
v1
v1
v1
v2
v5
o2
o2
o2
o2
o2
n4.05
v1
v1
v1
v3
v4
o2
o2
o2
o2
o2
n7.49
v1
v1
v1
v3
v5
o2
o2
o2
o2
o2
n9.06
v1
v1
v1
v4
v4
o2
o2
o2
o2
o2
n8.5
v1
v1
v1
v5
v5
o2
o2
o2
o2
o2
n3.4
v1
v1
v2
v2
v2
o2
o2
o2
o2
o2
n2.7
v1
v1
v2
v3
v4
o2
o2
o2
o2
o2
n5.26
v1
v1
v2
v5
v5
o2
o2
o2
o2
o2
n9.8
v1
v1
v3
v3
v3
o2
o2
o2
o2
o2
n7.32
v1
v1
v3
v3
v4
o2
o2
o2
o2
o2
n1.65
v1
v1
v3
v4
v5
o2
o2
o2
o2
o2
n4.13
v1
v1
v4
v4
v4
o2
o2
o2
o2
o2
n0.48
v1
v1
v4
v5
v5
o2
o2
o2
o2
o2
n8.81
v1
v1
v5
v5
v5
o2
o2
o2
o2
o2
n2.4
v1
v2
v2
v2
v2
o2
o2
o2
o2
o2
n7.19
v1
v2
v2
v2
v4
o2
o2
o2
o2
o2
n6.49
v1
v2
v2
v2
v5
o2
o2
o2
o2
o2
n1.9
v1
v2
v2
v3
v3
o2
o2
o2
o2
o2
n4.76
v1
v2
v2
v3
v5
o2
o2
o2
o2
o2
n4.51
v1
v2
v2
v4
v5
o2
o2
o2
o2
o2
n3.26
v1
v2
v3
v3
v3
o2
o2
o2
o2
o2
n8.26
v1
v2
v3
v3
v4
o2
o2
o2
o2
o2
n9.77
v1
v2
v3
v4
v5
o16
o2
o2
o2
o2
o2
n9.45
v1
v2
v3
v5
v5
o2
o2
o2
o2
o2
n8.21
v1
v2
v4
v4
v5
o2
o2
o2
o2
o2
n0.05
v1
v3
v3
v3
v3
o2
o2
o2
o2
o2
n5.3
v1
v3
v3
v3
v4
o2
o2
o2
o2
o2
n9.6
v1
v3
v3
v4
v5
o2
o2
o2
o2
o2
n9.53
v1
v3
v3
v5
v5
o2
o2
o2
o2
o2
n8.99
v1
v3
v4
v4
v5
o2
o2
o2
o2
o2
n8.01
v1
v4
v4
v4
v4
o2
o2
o2
o2
o2
n4.06
v1
v4
v4
v4
v5
o16
o2
o2
o2
o2
o2
n1.27
v2
v2
v2
v2
v2
o2
o2
o2
o2
o2
n1.77
v2
v2
v2
v2
v3
o2
o2
o2
o2
o2
n1.51
v2
v2
v2
v2
v5
o2
o2
o2
o2
o2
n6.86
v2
v2
v2
v3
v5
o2
o2
o2
o2
o2
n4.56
v2
v2
v2
v4
v4
o2
o2
o2
o2
o2
n1.61
v2
v2
v2
v5
v5
o2
o2
o2
o2
o2
n0.75
v2
v2
v3
v3
v3
o2
o2
o2
o2
o2
n6.74
v2
v2
v3
v3
v4
o2
o2
o2
o2
o2
n5.21
v2
v2
v3
v3
v5
o2
o2
o2
o2
o2
n6.1
v2
v2
v3
v4
v4
o16
o2
o2
o2
o2
o2
n2.71
v2
v2
v4
v4
v4
o2
o2
o2
o2
o2
n3.07
v2
v2
v4
v4
v5
o2
o2
o2
o2
o2
n7.47
v2
v2
v4
v5
v5
o2
o2
o2
o2
o2
n1.35
v2
v2
v5
v5
v5
o2
o2
o2
o2
o2
n3.27
v2
v3
v3
v3
v3
o2
o2
o2
o2
o2
n8.14
v2
v3
v3
v3
v4
o2
o2
o2
o2
o2
n4.06
v2
v3
v3
v5
v5
o2
o2
o2
o2
o2
n2.3
v2
v3
v4
v5
v5
o2
o2
o2
o2
o2
n0.46
v2
v3
v5
v5
v5
o2
o2
o2
o2
o2
n5.57
v2
v5
v5
v5
v5
o16
o2
o2
o2
o2
o2
n2.48
v3
v3
v3
v5
v5
o2
o2
o2
o2
o2
n9.34
v3
v3
v4
v5
v5
o2
o2
o2
o2
o2
n3.76
v3
v3
v5
v5
v5
o2
o2
o2
o2
o2
n5.1
v3
v4
v4
v4
v4
o2
o2
o2
o2
o2
n7.55
v3
v4
v4
v4
v5
o2
o2
o2
o2
o2
n1.16
v3
v4
v5
v5
v5
o2
o2
o2
o2
o2
n9.88
v4
v4
v4
v4
v4
o16
o2
o2
o2
o2
o2
n3.52
v4
v5
v5
v5
v5
o2
o2
o2
o2
o2
n0.17
v5
v5
v5
v5
v5
o2
o2
o2
o2
o2
o2
n3.83
v0
v0
v0
v0
v0
v1
o2
o2
o2
o2
o2
o2
n4.58
v0
v0
v0
v0
v0
v5
o2
o2
o2
o2
o2
o2
n1.92
v0
v0
v0
v0
v1
v3
o2
o2
o2
o2
o2
o2
n2.39
v0
v0
v0
v0
v1
v4
o2
o2
o2
o2
o2
o2
n6.19
v0
v0
v0
v0
v2
v2
o2
o2
o2
o2
o2
o2
n0.88
v0
v0
v0
v0
v2
v3
o2
o2
o2
o2
o2
o2
n9.16
v0
v0
v0
v0
v2
v4
o16
o2
o2
o2
o2
o2
o2
n8.7
v0
v0
v0
v0
v3
v3
o16
o2
o2
o2
o2
o2
o2
n1.43
v0
v0
v0
v0
v3
v5
o2
o2
o2
o2
o2
o2
n3.47
v0
v0
v0
v0
v5
v5
o2
o2
o2
o2
o2
o2
n1.58
v0
v0
v0
v1
v1
v1
o2
o2
o2
o2
o2
o2
n3.53
v0
v0
v0
v1
v1
v2
o2
o2
o2
o2
o2
o2
n4.93
v0
v0
v0
v1
v1
v4
o2
o2
o2
o2
o2
o2
n9.38
v0
v0
v0
v1
v2
v2
o2
o2
o2
o2
o2
o2
n9.01
v0
v0
v0
v1
v2
v3
o2
o2
o2
o2
o2
o2
n5.08
v0
v0
v0
v1
v2
v4
o2
o2
o2
o2
o2
o2
n8.4
v0
v0
v0
v1
v2
v5
o2
o2
o2
o2
o2
o2
n4.87
v0
v0
v0
v1
v3
v3
o16
o2
o2
o2
o2
o2
o2
n6.98
v0
v0
v0
v1
v3
v4
o2
o2
o2
o2
o2
o2
n5.36
v0
v0
v0
v2
v2
v3
o2
o2
o2
o2
o2
o2
n0.19
v0
v0
v0
v2
v2
v5
o2
o2
o2
o2
o2
o2
n8.61
v0
v0
v0
v2
v3
v3
o2
o2
o2
o2
o2
o2
n5.2
v0
v0
v0
v2
v3
v5
o2
o2
o2
o2
o2
o2
n6.43
v0
v0
v0
v2
v4
v4
o2
o2
o2
o2
o2
o2
n1.89
v0
v0
v0
v2
v4
v5
o2
o2
o2
o2
o2
o2
n1.1
v0
v0
v0
v2
v5
v5
o2
o2
o2
o2
o2
o2
n2.26
v0
v0
v0
v3
v3
v4
o2
o2
o2
o2
o2
o2
n3.01
v0
v0
v0
v3
v3
v5
o2
o2
o2
o2
o2
o2
n1.23
v0
v0
v0
v3
v4
v4
o2
o2
o2
o2
o2
o2
n0.33
v0
v0
v0
v3
v4
v5
o2
o2
o2
o2
o2
o2
n6.64
v0
v0
v0
v3
v5
v5
o2
o2
o2
o2
o2
o2
n1.21
v0
v0
v0
v4
v4
v4
o2
o2
o2
o2
o2
o2
n1.15
v0
v0
v0
v4
v4
v5
o2
o2
o2
o2
o2
o2
n3.67
v0
v0
v0
v4
v5
v5
o2
o2
o2
o2
o2
o2
n3.95
v0
v0
v1
v1
v1
v2
o2
o2
o2
o2
o2
o2
n3.59
v0
v0
v1
v1
v1
v3
o2
o2
o2
o2
o2
o2
n5.12
v0
v0
v1
v1
v1
v5
o16
o2
o2
o2
o2
o2
o2
n6.07
v0
v0
v1
v1
v2
v5
o2
o2
o2
o2
o2
o2
n0.34
v0
v0
v1
v1
v3
v3
o2
o2
o2
o2
o2
o2
n0.47
v0
v0
v1
v1
v3
v5
o2
o2
o2
o2
o2
o2
n8.82
v0
v0
v1
v1
v4
v5
o2
o2
o2
o2
o2
o2
n4.46
v0
v0
v1
v1
v5
v5
o2
o2
o2
o2
o2
o2
n2.3
v0
v0
v1
v2
v2
v2
o2
o2
o2
o2
o2
o2
n7.42
v0
v0
v1
v2
v2
v3
o2
o2
o2
o2
o2
o2
n7.9
v0
v0
v1
v2
v2
v4
o2
o2
o2
o2
o2
o2
n8.41
v0
v0
v1
v2
v3
v3
o2
o2
o2
o2
o2
o2
n2.59
v0
v0
v1
v2
v3
v4
o2
o2
o2
o2
o2
o2
n9.12
v0
v0
v1
v2
v4
v4
o2
o2
o2
o2
o2
o2
n2.17
v0
v0
v1
v2
v4
v5
o16
o2
o2
o2
o2
o2
o2
n7.05
v0
v0
v1
v3
v3
v3
o2
o2
o2
o2
o2
o2
n2.5
v0
v0
v1
v3
v4
v5
o2
o2
o2
o2
o2
o2
n9.31
v0
v0
v1
v3
v5
v5
o2
o2
o2
o2
o2
o2
n5.88
v0
v0
v1
v4
v4
v4
o16
o2
o2
o2
o2
o2
o2
n2.22
v0
v0
v2
v2
v2
v5
o2
o2
o2
o2
o2
o2
n0.28
v0
v0
v2
v2
v4
v5
o16
o2
o2
o2
o2
o2
o2
n7.16
v0
v0
v2
v2
v5
v5
o2
o2
o2
o2
o2
o2
n4.36
v0
v0
v2
v3
v3
v3
o2
o2
o2
o2
o2
o2
n7.9
v0
v0
v2
v3
v4
v4
o2
o2
o2
o2
o2
o2
n5.93
v0
v0
v2
v3
v4
v5
o2
o2
o2
o2
o2
o2
n9.76
v0
v0
v2
v3
v5
v5
o2
o2
o2
o2
o2
o2
n6.86
v0
v0
v2
v4
v4
v4
o2
o2
o2
o2
o2
o2
n5.88
v0
v0
v2
v4
v4
v5
o2
o2
o2
o2
o2
o2
n2.1
v0
v0
v2
v4
v5
v5
o2
o2
o2
o2
o2
o2
n0.94
v0
v0
v3
v3
v3
v5
o2
o2
o2
o2
o2
o2
n5.66
v0
v0
v3
v3
v4
v5
o2
o2
o2
o2
o2
o2
n7.65
v0
v0
v3
v4
v4
v5
o2
o2
o2
o2
o2
o2
n1.4
v0
v0
v3
v4
v5
v5
o2
o2
o2
o2
o2
o2
n6.28
v0
v0
v4
v4
v5
v5
o2
o2
o2
o2
o2
o2
n1.4
v0
v0
v5
v5
v5
v5
o2
o2
o2
o2
o2
o2
n2.58
v0
v1
v1
v1
v1
v2
o2
o2
o2
o2
o2
o2
n9.8
v0
v1
v1
v1
v1
v3
o2
o2
o2
o2
o2
o2
n4.42
v0
v1
v1
v1
v1
v5
o2
o2
o2
o2
o2
o2
n4.73
v0
v1
v1
v1
v2
v2
o2
o2
o2
o2
o2
o2
n2.34
v0
v1
v1
v1
v2
v3
o2
o2
o2
o2
o2
o2
n6.42
v0
v1
v1
v1
v2
v4
o2
o2
o2
o2
o2
o2
n4.58
v0
v1
v1
v1
v2
v5
o2
o2
o2
o2
o2
o2
n4.08
v0
v1
v1
v1
v3
v4
o2
o2
o2
o2
o2
o2
n1.54
v0
v1
v1
v1
v3
v5
o2
o2
o2
o2
o2
o2
n9.46
v0
v1
v1
v1
v4
v4
o2
o2
o2
o2
o2
o2
n0.38
v0
v1
v1
v1
v4
v5
o16
o2
o2
o2
o2
o2
o2
n9.86
v0
v1
v1
v2
v2
v2
o2
o2
o2
o2
o2
o2
n4.68
v0
v1
v1
v2
v2
v3
o16
o2
o2
o2
o2
o2
o2
n8.45
v0
v1
v1
v2
v2
v4
o2
o2
o2
o2
o2
o2
n9.84
v0
v1
v1
v2
v3
v4
o2
o2
o2
o2
o2
o2
n4.71
v0
v1
v1
v2
v4
v4
o2
o2
o2
o2
o2
o2
n9.26
v0
v1
v1
v3
v3
v4
o2
o2
o2
o2
o2
o2
n2.72
v0
v1
v1
v3
v4
v5
o2
o2
o2
o2
o2
o2
n1.71
v0
v1
v1
v3
v5
v5
o2
o2
o2
o2
o2
o2
n0.2
v0
v1
v1
v4
v4
v4
o2
o2
o2
o2
o2
o2
n5.27
v0
v1
v1
v4
v4
v5
o2
o2
o2
o2
o2
o2
n6.13
v0
v1
v1
v4
v5
v5
o2
o2
o2
o2
o2
o2
n7.98
v0
v1
v2
v2
v2
v3
o2
o2
o2
o2
o2
o2
n9.62
v0
v1
v2
v2
v2
v4
o2
o2
o2
o2
o2
o2
n0.77
v0
v1
v2
v2
v3
v5
o2
o2
o2
o2
o2
o2
n8.04
v0
v1
v2
v2
v4
v4
o2
o2
o2
o2
o2
o2
n2.67
v0
v1
v2
v2
v4
v5
o16
o2
o2
o2
o2
o2
o2
n7.07
v0
v1
v2
v2
v5
v5
o2
o2
o2
o2
o2
o2
n3.89
v0
v1
v2
v3
v3
v3
o2
o2
o2
o2
o2
o2
n0.54
v0
v1
v2
v3
v3
v4
o16
o2
o2
o2
o2
o2
o2
n6.89
v0
v1
v2
v3
v4
v4
o2
o2
o2
o2
o2
o2
n2.87
v0
v1
v2
v3
v5
v5
o2
o2
o2
o2
o2
o2
n0.9
v0
v1
v2
v4
v4
v5
o16
o2
o2
o2
o2
o2
o2
n1.94
v0
v1
v2
v4
v5
v5
o2
o2
o2
o2
o2
o2
n0.09
v0
v1
v2
v5
v5
v5
o2
o2
o2
o2
o2
o2
n5.12
v0
v1
v3
v3
v3
v4
o2
o2
o2
o2
o2
o2
n0.72
v0
v1
v3
v3
v3
v5
o2
o2
o2
o2
o2
o2
n6.46
v0
v1
v3
v4
v4
v4
o2
o2
o2
o2
o2
o2
n7.66
v0
v1
v3
v4
v4
v5
o2
o2
o2
o2
o2
o2
n7.56
v0
v1
v4
v4
v4
v5
o2
o2
o2
o2
o2
o2
n5.51
v0
v1
v4
v4
v5
v5
o2
o2
o2
o2
o2
o2
n0.26
v0
v1
v4
v5
v5
v5
o2
o2
o2
o2
o2
o2
n4.66
v0
v1
v5
v5
v5
v5
o2
o2
o2
o2
o2
o2
n3.67
v0
v2
v2
v2
v2
v3
o16
o2
o2
o2
o2
o2
o2
n7.61
v0
v2
v2
v2
v2
v5
o2
o2
o2
o2
o2
o2
n3.61
v0
v2
v2
v2
v4
v4
o2
o2
o2
o2
o2
o2
n5.88
v0
v2
v2
v3
v3
v5
o2
o2
o2
o2
o2
o2
n7.02
v0
v2
v2
v4
v4
v4
o2
o2
o2
o2
o2
o2
n2.73
v0
v2
v2
v5
v5
v5
o2
o2
o2
o2
o2
o2
n9.41
v0
v2
v3
v3
v3
v3
o2
o2
o2
o2
o2
o2
n2.15
v0
v2
v3
v3
v3
v4
o2
o2
o2
o2
o2
o2
n7.89
v0
v2
v3
v3
v4
v5
o2
o2
o2
o2
o2
o2
n9.32
v0
v2
v3
v3
v5
v5
o2
o2
o2
o2
o2
o2
n7.89
v0
v2
v3
v4
v4
v4
o2
o2
o2
o2
o2
o2
n2.85
v0
v2
v3
v4
v5
v5
o2
o2
o2
o2
o2
o2
n6.09
v0
v2
v4
v4
v4
v4
o2
o2
o2
o2
o2
o2
n4.25
v0
v2
v4
v4
v4
v5
o2
o2
o2
o2
o2
o2
n7.6
v0
v2
v4
v5
v5
v5
o2
o2
o2
o2
o2
o2
n4.71
v0
v2
v5
v5
v5
v5
o2
o2
o2
o2
o2
o2
n0.09
v0
v3
v3
v3
v3
v3
o2
o2
o2
o2
o2
o2
n4.74
v0
v3
v3
v3
v3
v4
o2
o2
o2
o2
o2
o2
n2.65
v0
v3
v3
v3
v4
v4
o2
o2
o2
o2
o2
o2
n6.84
v0
v3
v3
v3
v4
v5
o2
o2
o2
o2
o2
o2
n2.36
v0
v3
v3
v3
v5
v5
o2
o2
o2
o2
o2
o2
n6.52
v0
v3
v3
v5
v5
v5
o2
o2
o2
o2
o2
o2
n6.14
v0
v3
v4
v4
v4
v4
o2
o2
o2
o2
o2
o2
n2.05
v0
v3
v4
v4
v4
v5
o2
o2
o2
o2
o2
o2
n0.96
v0
v3
v4
v4
v5
v5
o2
o2
o2
o2
o2
o2
n8.22
v0
v3
v5
v5
v5
v5
o2
o2
o2
o2
o2
o2
n9.94
v0
v4
v4
v4
v4
v4
o16
o2
o2
o2
o2
o2
o2
n4.36
v0
v4
v4
v4
v4
v5
o2
o2
o2
o2
o2
o2
n7.42
v0
v4
v4
v4
v5
v5
o2
o2
o2
o2
o2
o2
n2.05
v0
v5
v5
v5
v5
v5
o2
o2
o2
o2
o2
o2
n0.63
v1
v1
v1
v1
v1
v1
o16
o2
o2
o2
o2
o2
o2
n2.77
v1
v1
v1
v1
v1
v4
o2
o2
o2
o2
o2
o2
n0.82
v1
v1
v1
v1
v2
v3
o2
o2
o2
o2
o2
o2
n0.73
v1
v1
v1
v1
v2
v4
o2
o2
o2
o2
o2
o2
n1.74
v1
v1
v1
v1
v2
v5
o2
o2
o2
o2
o2
o2
n1.36
v1
v1
v1
v1
v3
v3
o2
o2
o2
o2
o2
o2
n8.14
v1
v1
v1
v1
v3
v4
o2
o2
o2
o2
o2
o2
n0.62
v1
v1
v1
v2
v3
v3
o2
o2
o2
o2
o2
o2
n2.23
v1
v1
v1
v2
v4
v4
o2
o2
o2
o2
o2
o2
n5.52
v1
v1
v1
v2
v4
v5
o2
o2
o2
o2
o2
o2
n0.87
v1
v1
v1
v2
v5
v5
o2
o2
o2
o2
o2
o2
n1.16
v1
v1
v1
v3
v3
v5
o2
o2
o2
o2
o2
o2
n1.22
v1
v1
v1
v3
v4
v5
o2
o2
o2
o2
o2
o2
n4.54
v1
v1
v1
v4
v4
v5
o2
o2
o2
o2
o2
o2
n7.86
v1
v1
v2
v2
v2
v3
o2
o2
o2
o2
o2
o2
n0.54
v1
v1
v2
v2
v2
v4
o2
o2
o2
o2
o2
o2
n8.94
v1
v1
v2
v2
v2
v5
o2
o2
o2
o2
o2
o2
n0.34
v1
v1
v2
v2
v3
v4
o2
o2
o2
o2
o2
o2
n4.42
v1
v1
v2
v2
v4
v4
o2
o2
o2
o2
o2
o2
n7.58
v1
v1
v2
v2
v5
v5
o2
o2
o2
o2
o2
o2
n4
v1
v1
v2
v3
v3
v4
o2
o2
o2
o2
o2
o2
n2.57
v1
v1
v2
v3
v5
v5
o2
o2
o2
o2
o2
o2
n7.69
v1
v1
v2
v4
v5
v5
o2
o2
o2
o2
o2
o2
n9.92
v1
v1
v3
v3
v3
v5
o2
o2
o2
o2
o2
o2
n6.81
v1
v1
v3
v3
v4
v5
o2
o2
o2
o2
o2
o2
n9.85
v1
v1
v3
v3
v5
v5
o2
o2
o2
o2
o2
o2
n8.19
v1
v1
v3
v4
v4
v4
o2
o2
o2
o2
o2
o2
n8.44
v1
v1
v3
v4
v4
v5
o2
o2
o2
o2
o2
o2
n9.38
v1
v1
v4
v4
v4
v5
o2
o2
o2
o2
o2
o2
n7.33
v1
v1
v4
v4
v5
v5
o2
o2
o2
o2
o2
o2
n7.74
v1
v1
v4
v5
v5
v5
o2
o2
o2
o2
o2
o2
n7.9
v1
v2
v2
v2
v2
v3
o2
o2
o2
o2
o2
o2
n1.22
v1
v2
v2
v2
v2
v5
o2
o2
o2
o2
o2
o2
n0.5
v1
v2
v2
v2
v3
v3
o2
o2
o2
o2
o2
o2
n3.51
v1
v2
v2
v2
v4
v4
o2
o2
o2
o2
o2
o2
n3.88
v1
v2
v2
v3
v3
v3
o16
o2
o2
o2
o2
o2
o2
n1.61
v1
v2
v2
v4
v4
v5
o2
o2
o2
o2
o2
o2
n5.19
v1
v2
v3
v3
v3
v5
o2
o2
o2
o2
o2
o2
n8.39
v1
v2
v3
v3
v4
v4
o2
o2
o2
o2
o2
o2
n5.91
v1
v2
v3
v3
v4
v5
o2
o2
o2
o2
o2
o2
n8.09
v1
v2
v3
v4
v4
v4
o2
o2
o2
o2
o2
o2
n3.88
v1
v2
v3
v4
v5
v5
o2
o2
o2
o2
o2
o2
n7.59
v1
v2
v3
v5
v5
v5
o16
o2
o2
o2
o2
o2
o2
n6.92
v1
v2
v4
v4
v4
v5
o2
o2
o2
o2
o2
o2
n1.14
v1
v2
v4
v4
v5
v5
o2
o2
o2
o2
o2
o2
n8.23
v1
v2
v4
v5
v5
v5
o2
o2
o2
o2
o2
o2
n1.5
v1
v3
v3
v3
v3
v3
o2
o2
o2
o2
o2
o2
n8.89
v1
v3
v3
v3
v3
v4
o2
o2
o2
o2
o2
o2
n5.19
v1
v3
v3
v3
v3
v5
o2
o2
o2
o2
o2
o2
n7.88
v1
v3
v3
v3
v4
v4
o2
o2
o2
o2
o2
o2
n4.78
v1
v3
v3
v4
v4
v4
o16
o2
o2
o2
o2
o2
o2
n4.76
v1
v3
v3
v4
v5
v5
o2
o2
o2
o2
o2
o2
n5.85
v1
v3
v4
v4
v4
v5
o2
o2
o2
o2
o2
o2
n5.49
v1
v3
v4
v4
v5
v5
o2
o2
o2
o2
o2
o2
n1.7
v1
v3
v4
v5
v5
v5
o2
o2
o2
o2
o2
o2
n6.6
v1
v3
v5
v5
v5
v5
o2
o2
o2
o2
o2
o2
n3.34
v1
v4
v4
v4
v4
v4
o16
o2
o2
o2
o2
o2
o2
n8.02
v1
v4
v4
v4
v4
v5
o2
o2
o2
o2
o2
o2
n7.78
v1
v4
v4
v4
v5
v5
o2
o2
o2
o2
o2
o2
n0.01
v1
v4
v5
v5
v5
v5
o2
o2
o2
o2
o2
o2
n2.3
v2
v2
v2
v2
v2
v2
o2
o2
o2
o2
o2
o2
n4.27
v2
v2
v2
v2
v2
v4
o2
o2
o2
o2
o2
o2
n7.61
v2
v2
v2
v2
v2
v5
o2
o2
o2
o2
o2
o2
n4.81
v2
v2
v2
v2
v3
v3
o16
o2
o2
o2
o2
o2
o2
n7.67
v2
v2
v2
v2
v3
v5
o2
o2
o2
o2
o2
o2
n8.67
v2
v2
v2
v2
v4
v4
o2
o2
o2
o2
o2
o2
n8.95
v2
v2
v2
v3
v3
v5
o2
o2
o2
o2
o2
o2
n1.93
v2
v2
v2
v3
v5
v5
o2
o2
o2
o2
o2
o2
n7.01
v2
v2
v2
v4
v4
v4
o2
o2
o2
o2
o2
o2
n1.31
v2
v2
v2
v4
v5
v5
o2
o2
o2
o2
o2
o2
n3.12
v2
v2
v3
v3
v5
v5
o2
o2
o2
o2
o2
o2
n6.59
v2
v2
v3
v4
v4
v4
o2
o2
o2
o2
o2
o2
n8.89
v2
v2
v3
v4
v4
v5
o16
o2
o2
o2
o2
o2
o2
n4.26
v2
v2
v3
v5
v5
v5
o2
o2
o2
o2
o2
o2
n1.53
v2
v2
v4
v4
v4
v5
o2
o2
o2
o2
o2
o2
n7.7
v2
v2
v4
v5
v5
v5
o2
o2
o2
o2
o2
o2
n7.68
v2
v3
v3
v3
v3
v3
o2
o2
o2
o2
o2
o2
n4.08
v2
v3
v3
v3
v4
v4
o2
o2
o2
o2
o2
o2
n8.61
v2
v3
v3
v3
v4
v5
o2
o2
o2
o2
o2
o2
n3.53
v2
v3
v3
v4
v4
v4
o16
o2
o2
o2
o2
o2
o2
n4.51
v2
v3
v3
v5
v5
v5
o2
o2
o2
o2
o2
o2
n0.62
v2
v3
v4
v4
v5
v5
o2
o2
o2
o2
o2
o2
n0.86
v2
v3
v4
v5
v5
v5
o2
o2
o2
o2
o2
o2
n3.65
v2
v4
v4
v4
v4
v4
o2
o2
o2
o2
o2
o2
n4.47
v2
v4
v4
v4
v4
v5
o2
o2
o2
o2
o2
o2
n2.04
v2
v4
v4
v4
v5
v5
o2
o2
o2
o2
o2
o2
n2.22
v2
v4
v4
v5
v5
v5
o2
o2
o2
o2
o2
o2
n7.03
v2
v4
v5
v5
v5
v5
o2
o2
o2
o2
o2
o2
n0.12
v2
v5
v5
v5
v5
v5
o2
o2
o2
o2
o2
o2
n6.13
v3
v3
v3
v3
v3
v3
o2
o2
o2
o2
o2
o2
n5.68
v3
v3
v3
v3
v3
v5
o2
o2
o2
o2
o2
o2
n6.53
v3
v3
v3
v3
v4
v5
o2
o2
o2
o2
o2
o2
n1.21
v3
v3
v3
v3
v5
v5
o2
o2
o2
o2
o2
o2
n7.84
v3
v3
v3
v4
v5
v5
o2
o2
o2
o2
o2
o2
n1.1
v3
v3
v4
v5
v5
v5
o2
o2
o2
o2
o2
o2
n9.5
v3
v4
v4
v4
v4
v5
o2
o2
o2
o2
o2
o2
n0.63
v4
v4
v4
v4
v4
v4
o2
o2
o2
o2
o2
o2
n3.06
v4
v4
v4
v4
v4
v5
o2
o2
o2
o2
o2
o2
n9.35
v4
v4
v5
v5
v5
v5
o2
o2
o2
o2
o2
o2
n4.75
v4
v5
v5
v5
v5
v5
k5
6
12
18
24
30
J0 6
0 8.66
1 1.03
2 3.6
3 4.23
4 3.71
5 2.75
J1 6
0 9.83
1 3.98
2 0.28
3 8.75
4 2.32
5 4.86
J2 6
0 6.84
1 1.99
2 1.82
3 5.14
4 3.37
5 8.81
J3 6
0 8.17
1 6.72
2 4.83
3 8.17
4 -1.93
5 2.79
J4 6
0 8.73
1 5.4
2 0.53
3 -9.57
4 5.75
5 2.64
J5 6
0 4.32
1 2.94
2 8.48
3 6.87
4 1.36
5 3
G0 6
0 3.06
1 6.09
2 1.61
3 0.44
4 3.6
5 5.09
